TYPE : Vertex Cover
DIMENSION: 40
EDGE_DATA_SECTION:
0 1
0 5
0 8
0 10
0 32
0 34
1 6
1 18
1 22
1 23
1 33
2 3
2 14
2 18
2 20
3 6
3 9
3 12
3 20
3 25
3 36
4 10
4 23
4 27
4 38
5 8
5 18
5 20
5 31
5 32
5 37
6 17
6 33
7 10
7 29
7 30
7 33
7 38
8 11
8 15
8 17
8 19
8 21
8 31
8 34
9 16
9 23
9 32
10 11
10 26
11 14
11 16
11 27
12 23
12 31
12 36
13 14
13 20
13 31
13 34
14 26
14 29
14 32
14 38
15 16
15 18
15 31
15 32
16 29
16 30
16 31
17 18
17 19
17 20
18 22
18 24
18 32
19 32
19 37
20 21
20 33
21 29
21 30
21 31
22 24
22 27
23 27
24 28
24 32
25 29
25 30
25 32
25 37
26 36
26 37
27 29
28 30
28 33
28 36
29 30
30 32
30 33
30 36
30 39
31 34
33 37
34 35
-1
VERTEX_DEGREE:
6.0 6.0 4.0 7.0 4.0 7.0 4.0 5.0 9.0 4.0 5.0 5.0 4.0 4.0 7.0 5.0 6.0 5.0 8.0 4.0 7.0 5.0 4.0 5.0 4.0 5.0 4.0 5.0 4.0 7.0 10.0 8.0 10.0 7.0 5.0 1.0 5.0 5.0 3.0 1.0
VERTEX_COVER:
1 3 5 8 10 14 16 17 18 20 23 24 27 29 30 31 32 33 34 36 37 38
EOF
